dosen = {joni, rani, dono, john, budi};

matkul = {bio, web2, spk, algo, web};

hari = {rabu, jumat, senin, selasa, kamis};

dosen_matkul = array2d(1..5, 1..5, [1, 1, 0, 0, 0, 0, 0, 1, 1, 1, 1, 0, 1, 0, 1, 1,
    0, 0, 1, 0, 0, 0, 0, 1, 1]);

dosen_hari = array2d(1..5, 1..5, [1, 1, 1, 0, 0, 1, 0, 1, 0, 1, 1, 0, 0, 1, 0, 1,
    1, 1, 1, 1, 1, 0, 0, 1, 0]);

